Maximize
obj : FLOW 
Subject To 
 + f_0_6_0 + f_0_6_1 <= 200
 + f_1_7_0 + f_1_7_1 <= 200
 + f_2_8_0 + f_2_8_1 <= 200
 + f_3_9_0 + f_3_9_1 <= 200
 + f_5_11_0 + f_5_11_1 <= 300
 + f_6_12_0 + f_6_12_1 <= 300
 + f_7_13_0 + f_7_13_1 <= 300
 + f_8_14_0 + f_8_14_1 <= 300
 + f_1_7_0 + f_2_8_0 + f_3_9_0 + f_5_11_0 - f_0_6_0 + f_6_12_0=0
 - f_1_7_0 + f_7_13_0=0
 - f_2_8_0 + f_8_14_0=0
 - f_3_9_0 - f_5_11_0 - f_6_12_0 - f_7_13_0 + f_8_14_0 - 60FLOW >= 0  
BOUNDS
f_0_6_0  >= 0
f_1_7_0  >= 0
f_2_8_0  >= 0
f_3_9_0  >= 0
f_5_11_0  >= 0
f_6_12_0  >= 0
f_7_13_0  >= 0
f_8_14_0  >= 0
FLOW > 0 
End
